language ESSENCE' 1.0
$ Problem from Gecode/examples/minesweeper.cc  problem 1
letting r be 8
letting c be 8
letting game be [
   [-1,2,-1,2,1,1,-1,-1],
   [-1,-1,4,-1,2,-1,-1,2],
   [2,-1,-1,2,-1,-1,3,-1],
   [2,-1,2,2,-1,3,-1,3],
   [-1,-1,1,-1,-1,-1,4,-1],
   [1,-1,-1,-1,2,-1,-1,3],
   [-1,2,-1,2,2,-1,3,-1],
   [1,-1,1,-1,-1,1,-1,1]
]

